Minimize

  10.00 x_0_1 + 15.00 x_0_2 + 20.00 x_0_3 + 25.00 x_0_4 + 30.00 x_0_5 + 5.00 x_1_2 + 6.00 x_1_3 + 7.00 x_1_4 + 8.00 x_2_3 + 9.00 x_2_4 + 10.00 x_2_5 + 50.00 x_3_4 + 60.00 x_3_5 + 70.00 x_3_6 + 15.00 x_4_5 + 20.00 x_4_6 + 25.00 x_4_7 + 5.00 x_5_6 + 10.00 x_5_7 + 15.00 x_5_8 + 20.00 x_5_9 + 5.00 x_6_7 + 6.00 x_6_8 + 7.00 x_6_9 + 8.00 x_7_8 + 9.00 x_8_9

Subject To

   a:  x_0_1 + x_0_2 + x_0_3 + x_0_4 + x_0_5 =  1
   b:  x_5_9 + x_6_9 + x_8_9 =  1

   b1: x_0_1 + -1 x_1_2 + -1 x_1_3 + -1 x_1_4 =  0
   b2: x_0_2 + x_1_2 + -1 x_2_3 + -1 x_2_4 + -1 x_2_5 =  0
   b3: x_0_3 + x_1_3 + x_2_3 + -1 x_3_4 + -1 x_3_5 + -1 x_3_6 =  0
   b4: x_0_4 + x_1_4 + x_2_4 + x_3_4 + -1 x_4_5 + -1 x_4_6 + -1 x_4_7 =  0
   b5: x_0_5 + x_2_5 + x_3_5 + x_4_5 + -1 x_5_6 + -1 x_5_7 + -1 x_5_8 + -1 x_5_9 =  0
   b6: x_3_6 + x_4_6 + x_5_6 + -1 x_6_7 + -1 x_6_8 + -1 x_6_9 =  0
   b7: x_4_7 + x_5_7 + x_6_7 + -1 x_7_8 =  0
   b8: x_5_8 + x_6_8 + x_7_8 + -1 x_8_9 =  0

Binary

  x_0_1 x_0_2 x_0_3 x_0_4 x_0_5 x_1_2 x_1_3 x_1_4 x_2_3 x_2_4 x_2_5 x_3_4 x_3_5 x_3_6 x_4_5 x_4_6 x_4_7 x_5_6 x_5_7 x_5_8 x_5_9 x_6_7 x_6_8 x_6_9 x_7_8 x_8_9

End


